
variable            gamma equal 0.0001
variable            cooltemp equal 0.45
variable            seed equal 418940

units 		        lj
dimension 	        3
boundary 	        p p p
atom_style 	        atomic

lattice 	        fcc 1.2
region 	            box block 0 13 0 13 0 13
create_box 	        2 box
create_atoms 	    1 box
group               smaller_atoms id 1:19652:5
set 		        group smaller_atoms type 2

change_box 	        all triclinic

mass                1 1.0
mass                2 1.0

neighbor 	        1.0 multi
neigh_modify 	    delay 0
comm_modify 	    mode multi

pair_style 	        lj/cut 2.5
pair_coeff 	        1 1 1.0 1.0 2.5
pair_coeff 	        2 2 0.5 0.88 2.5
pair_coeff 	        1 2 1.5 0.8 2.5
pair_modify         shift yes

# start heat###############

velocity 	        all create 5.0 ${seed} dist gaussian rot yes

timestep 	        0.001
fix 		        motion all nve
fix 		        start_heat all langevin 5.0 5.0 $(100.0*dt) ${seed} zero yes

thermo 	            1000
thermo_style 	    custom step temp epair etotal press vol pxy

run 		        50000

unfix 		        start_heat
unfix 		        motion

reset_timestep      0

###########################

velocity            all zero linear
velocity            all zero angular
velocity 	        all scale 1.0

timestep            0.005

fix                 pre_eq all nvt temp 1.0 1.0 $(100.0*dt)
run                 100000
unfix               pre_eq

fix 		        cool all nvt temp 1.0 ${cooltemp} $(100.0*dt)
run                 200000
unfix               cool

fix                 eq all nvt temp ${cooltemp} ${cooltemp} $(100.0*dt)
run                 1000000
unfix               eq

velocity            all ramp vx 0 $(v_gamma*ly) y 0 $(ly) sum yes units box
fix 		        1 all deform 1 xy erate ${gamma} remap v
fix 		        2 all nvt/sllod temp ${cooltemp} ${cooltemp} $(100.0*dt)

# compute 	        layers all chunk/atom bin/1d y center 0.05 units reduced
# fix 		        layers_vx all ave/chunk 20 250 5000 layers vx file profile_vx.txt

variable 	        visc equal -pxy/v_gamma
fix 		        visc_ave all ave/time 10 100 1000 v_visc ave running

thermo_style	    custom step c_2_temp temp epair etotal press vol pxy f_visc_ave
thermo		        1000

run		            2000000

# dump 		        1 all custom 1000 dump_shear_00011_interval_1000_to_2000000.colloid id type x y z
# run               2000000
write_restart       restart_shear.equil
